nr_shelves = 10;
shelves = [7, 7, 10];

Product = P(1..3);

product_size = 
[|       Length: Width: Height: 
 | P(1):      4,     3,      3
 | P(2):      5,     2,      7
 | P(3):      7,     3,      4
 |];

nr_products = [10, 7, 7];
